66 66
19 64
12 18
22 4
11 61
18 31
8 34
24 53
14 51
25 58
8 9
16 54
30 27
28 16
23 15
13 50
18 48
10 40
25 6
9 59
32 20
23 39
27 2
32 32
15 46
4 38
7 24
27 65
1 1
21 41
20 63
11 11
3 13
31 60
33 57
15 3
29 42
30 30
17 44
4 10
5 49
22 52
9 37
2 21
26 66
20 7
12 62
3 55
2 45
17 47
6 22
10 8
33 56
28 43
6 19
5 26
16 36
1 35
26 12
24 25
31 5
21 17
14 29
13 33
19 28
7 23
29 14
